INPUT_PATH_PREFIX=/testing/
INPUT_PARAMETERS=key1=value1,key2=123
RUNNER_DEBUG=1
